NAME : results2.288218.tour
COMMENT : Length = 288218
COMMENT : Found by LKH [Keld Helsgaun] Tue Dec 11 21:24:42 2018
TYPE : TOUR
DIMENSION : 87
TOUR_SECTION
1
34
75
33
32
74
31
4
60
3
28
72
27
11
64
12
44
80
43
7
62
8
9
63
10
49
83
50
51
84
52
53
85
54
25
71
26
57
87
58
47
82
48
22
69
21
41
79
42
56
86
55
24
70
23
40
78
39
18
67
17
16
66
15
13
65
14
35
76
36
37
77
38
19
68
20
46
81
45
6
61
5
30
73
29
2
59
-1
EOF
